(declare-rel loop ((Array Int Int) (Array Int Int) (Array Int Int) (Array Int Int) (Array Int Int) Int Int ))
(declare-rel exit ())
(declare-var i Int )
(declare-var i1 Int )
(declare-var i2 Int )
(declare-var i3 Int )
(declare-var i4 Int )
(declare-var i5 Int )
(declare-var i6 Int )
(declare-var i7 Int )
(declare-var i8 Int )
(declare-var s Int )
(declare-var s1 Int )
(declare-var s2 Int )
(declare-var s3 Int )
(declare-var s4 Int )
(declare-var s5 Int )
(declare-var s6 Int )
(declare-var s7 Int )
(declare-var index_limit Int )
(declare-var a_i Int )
(declare-var a_i1 Int )
(declare-var a_i2 Int )
(declare-var a_i3 Int )
(declare-var a_i4 Int )
(declare-var a_i5 Int )
(declare-var a_i6 Int )
(declare-var a_i7 Int )
(declare-var a_i_new Int )
(declare-var a_i_new1 Int )
(declare-var a_i_new2 Int )
(declare-var a_i_new3 Int )
(declare-var a_i_new4 Int )
(declare-var a_i_new5 Int )
(declare-var a_i_new6 Int )
(declare-var a_i_new7 Int )
(declare-var b_i Int )
(declare-var b_i1 Int )
(declare-var b_i2 Int )
(declare-var b_i3 Int )
(declare-var b_i4 Int )
(declare-var b_i5 Int )
(declare-var b_i6 Int )
(declare-var b_i7 Int )
(declare-var b_i_new Int )
(declare-var b_i_new1 Int )
(declare-var b_i_new2 Int )
(declare-var b_i_new3 Int )
(declare-var b_i_new4 Int )
(declare-var b_i_new5 Int )
(declare-var b_i_new6 Int )
(declare-var b_i_new7 Int )
(declare-var c_i Int )
(declare-var c_i1 Int )
(declare-var c_i2 Int )
(declare-var c_i3 Int )
(declare-var c_i4 Int )
(declare-var c_i5 Int )
(declare-var c_i6 Int )
(declare-var c_i7 Int )
(declare-var d_i Int )
(declare-var d_i1 Int )
(declare-var d_i2 Int )
(declare-var d_i3 Int )
(declare-var d_i4 Int )
(declare-var d_i5 Int )
(declare-var d_i6 Int )
(declare-var d_i7 Int )
(declare-var e_i Int )
(declare-var e_i1 Int )
(declare-var e_i2 Int )
(declare-var e_i3 Int )
(declare-var e_i4 Int )
(declare-var e_i5 Int )
(declare-var e_i6 Int )
(declare-var e_i7 Int )
(declare-var count Int )
(declare-var a_array (Array Int Int) )
(declare-var a_array1 (Array Int Int) )
(declare-var a_array2 (Array Int Int) )
(declare-var a_array3 (Array Int Int) )
(declare-var a_array4 (Array Int Int) )
(declare-var a_array5 (Array Int Int) )
(declare-var a_array6 (Array Int Int) )
(declare-var a_array7 (Array Int Int) )
(declare-var a_array8 (Array Int Int) )
(declare-var b_array (Array Int Int) )
(declare-var b_array1 (Array Int Int) )
(declare-var b_array2 (Array Int Int) )
(declare-var b_array3 (Array Int Int) )
(declare-var b_array4 (Array Int Int) )
(declare-var b_array5 (Array Int Int) )
(declare-var b_array6 (Array Int Int) )
(declare-var b_array7 (Array Int Int) )
(declare-var b_array8 (Array Int Int) )
(declare-var c_array (Array Int Int) )
(declare-var d_array (Array Int Int) )
(declare-var e_array (Array Int Int) )

(rule (=> 
	(and 
		(= i 0)
	)
	(loop a_array b_array c_array d_array e_array i count)
))
(rule (=> 
	(and 
		(loop a_array b_array c_array d_array e_array i count)

		(< i (* count 8))
		
		(= a_i (select a_array i))
		(= b_i (select b_array i))
		(= c_i (select c_array i))
		(= d_i (select d_array i))
		(= e_i (select e_array i))
		(= s (+ b_i c_i))
		(= b_i_new (+ a_i d_i))
		(= a_i_new (* s e_i))
		(= b_array1 (store b_array i b_i_new))
		(= a_array1 (store a_array i a_i_new))

		(= a_i1 (select a_array1 (+ i 1)))
		(= b_i1 (select b_array1 (+ i 1)))
		(= c_i1 (select c_array (+ i 1)))
		(= d_i1 (select d_array (+ i 1)))
		(= e_i1 (select e_array (+ i 1)))
		(= s1 (+ b_i1 c_i1))
		(= b_i_new1 (+ a_i1 d_i1))
		(= a_i_new1 (* s1 e_i1))
		(= b_array2 (store b_array1 (+ i 1) b_i_new1))
		(= a_array2 (store a_array1 (+ i 1) a_i_new1))

		(= a_i2 (select a_array2 (+ i 2)))
		(= b_i2 (select b_array2 (+ i 2)))
		(= c_i2 (select c_array (+ i 2)))
		(= d_i2 (select d_array (+ i 2)))
		(= e_i2 (select e_array (+ i 2)))
		(= s2 (+ b_i2 c_i2))
		(= b_i_new2 (+ a_i2 d_i2))
		(= a_i_new2 (* s2 e_i2))
		(= b_array3 (store b_array2 (+ i 2) b_i_new2))
		(= a_array3 (store a_array2 (+ i 2) a_i_new2))

		(= a_i3 (select a_array3 (+ i 3)))
		(= b_i3 (select b_array3 (+ i 3)))
		(= c_i3 (select c_array (+ i 3)))
		(= d_i3 (select d_array (+ i 3)))
		(= e_i3 (select e_array (+ i 3)))
		(= s3 (+ b_i3 c_i3))
		(= b_i_new3 (+ a_i3 d_i3))
		(= a_i_new3 (* s3 e_i3))
		(= b_array4 (store b_array3 (+ i 3) b_i_new3))
		(= a_array4 (store a_array3 (+ i 3) a_i_new3))

		(= a_i4 (select a_array4 (+ i 4)))
		(= b_i4 (select b_array4 (+ i 4)))
		(= c_i4 (select c_array (+ i 4)))
		(= d_i4 (select d_array (+ i 4)))
		(= e_i4 (select e_array (+ i 4)))
		(= s4 (+ b_i4 c_i4))
		(= b_i_new4 (+ a_i4 d_i4))
		(= a_i_new4 (* s4 e_i4))
		(= b_array5 (store b_array4 (+ i 4) b_i_new4))
		(= a_array5 (store a_array4 (+ i 4) a_i_new4))

		(= a_i5 (select a_array5 (+ i 5)))
		(= b_i5 (select b_array5 (+ i 5)))
		(= c_i5 (select c_array (+ i 5)))
		(= d_i5 (select d_array (+ i 5)))
		(= e_i5 (select e_array (+ i 5)))
		(= s5 (+ b_i5 c_i5))
		(= b_i_new5 (+ a_i5 d_i5))
		(= a_i_new5 (* s5 e_i5))
		(= b_array6 (store b_array5 (+ i 5) b_i_new5))
		(= a_array6 (store a_array5 (+ i 5) a_i_new5))

		(= a_i6 (select a_array6 (+ i 6)))
		(= b_i6 (select b_array6 (+ i 6)))
		(= c_i6 (select c_array (+ i 6)))
		(= d_i6 (select d_array (+ i 6)))
		(= e_i6 (select e_array (+ i 6)))
		(= s6 (+ b_i6 c_i6))
		(= b_i_new6 (+ a_i6 d_i6))
		(= a_i_new6 (* s6 e_i6))
		(= b_array7 (store b_array6 (+ i 6) b_i_new6))
		(= a_array7 (store a_array6 (+ i 6) a_i_new6))

		(= a_i7 (select a_array7 (+ i 7)))
		(= b_i7 (select b_array7 (+ i 7)))
		(= c_i7 (select c_array (+ i 7)))
		(= d_i7 (select d_array (+ i 7)))
		(= e_i7 (select e_array (+ i 7)))
		(= s7 (+ b_i7 c_i7))
		(= b_i_new7 (+ a_i7 d_i7))
		(= a_i_new7 (* s7 e_i7))
		(= b_array8 (store b_array7 (+ i 7) b_i_new7))
		(= a_array8 (store a_array7 (+ i 7) a_i_new7))
	)
	(loop a_array8 b_array8 c_array d_array e_array (+ i 8) count)
))
(rule (=> 
	(and 
		(loop a_array b_array c_array d_array e_array i count)
		(not (< i (* count 8)))
	)
	exit
))
(query exit)